DIMENSION: 10
EDGE_WEIGHT_TYPE: EXPLICIT
EDGE_WEIGHT_FORMAT: FULL_MATRIX
EDGE_WEIGHT_SECTION:
32767 42 6 99 41 15 55 62 37 21 
42 32767 2 36 29 40 96 32767 46 88 
6 2 32767 20 67 65 55 32767 55 50 
99 36 20 32767 99 49 9 28 58 6 
41 29 67 99 32767 87 99 92 21 81 
15 40 65 49 87 32767 79 15 72 19 
55 96 55 9 99 79 32767 63 96 17 
62 32767 32767 28 92 15 63 32767 47 92 
37 46 55 58 21 72 96 47 32767 62 
21 88 50 6 81 19 17 92 62 32767 
EOF